p cnf 85 1999
c at least one value
1 2 3 4 5 6 7 0
8 9 10 11 12 13 14 0
15 16 17 18 19 20 21 0
22 23 24 25 26 27 28 0
29 30 31 32 33 34 35 0
36 37 38 39 40 41 42 0
43 44 45 46 47 48 49 0
50 51 52 53 54 55 0
56 57 58 59 60 61 0
62 63 64 65 66 67 0
68 69 70 71 72 73 0
74 75 76 77 78 79 0
80 81 82 83 84 85 0
c at most one value
-1 -2 0
-1 -3 0
-1 -4 0
-1 -5 0
-1 -6 0
-1 -7 0
-2 -3 0
-2 -4 0
-2 -5 0
-2 -6 0
-2 -7 0
-3 -4 0
-3 -5 0
-3 -6 0
-3 -7 0
-4 -5 0
-4 -6 0
-4 -7 0
-5 -6 0
-5 -7 0
-6 -7 0
-8 -9 0
-8 -10 0
-8 -11 0
-8 -12 0
-8 -13 0
-8 -14 0
-9 -10 0
-9 -11 0
-9 -12 0
-9 -13 0
-9 -14 0
-10 -11 0
-10 -12 0
-10 -13 0
-10 -14 0
-11 -12 0
-11 -13 0
-11 -14 0
-12 -13 0
-12 -14 0
-13 -14 0
-15 -16 0
-15 -17 0
-15 -18 0
-15 -19 0
-15 -20 0
-15 -21 0
-16 -17 0
-16 -18 0
-16 -19 0
-16 -20 0
-16 -21 0
-17 -18 0
-17 -19 0
-17 -20 0
-17 -21 0
-18 -19 0
-18 -20 0
-18 -21 0
-19 -20 0
-19 -21 0
-20 -21 0
-22 -23 0
-22 -24 0
-22 -25 0
-22 -26 0
-22 -27 0
-22 -28 0
-23 -24 0
-23 -25 0
-23 -26 0
-23 -27 0
-23 -28 0
-24 -25 0
-24 -26 0
-24 -27 0
-24 -28 0
-25 -26 0
-25 -27 0
-25 -28 0
-26 -27 0
-26 -28 0
-27 -28 0
-29 -30 0
-29 -31 0
-29 -32 0
-29 -33 0
-29 -34 0
-29 -35 0
-30 -31 0
-30 -32 0
-30 -33 0
-30 -34 0
-30 -35 0
-31 -32 0
-31 -33 0
-31 -34 0
-31 -35 0
-32 -33 0
-32 -34 0
-32 -35 0
-33 -34 0
-33 -35 0
-34 -35 0
-36 -37 0
-36 -38 0
-36 -39 0
-36 -40 0
-36 -41 0
-36 -42 0
-37 -38 0
-37 -39 0
-37 -40 0
-37 -41 0
-37 -42 0
-38 -39 0
-38 -40 0
-38 -41 0
-38 -42 0
-39 -40 0
-39 -41 0
-39 -42 0
-40 -41 0
-40 -42 0
-41 -42 0
-43 -44 0
-43 -45 0
-43 -46 0
-43 -47 0
-43 -48 0
-43 -49 0
-44 -45 0
-44 -46 0
-44 -47 0
-44 -48 0
-44 -49 0
-45 -46 0
-45 -47 0
-45 -48 0
-45 -49 0
-46 -47 0
-46 -48 0
-46 -49 0
-47 -48 0
-47 -49 0
-48 -49 0
-50 -51 0
-50 -52 0
-50 -53 0
-50 -54 0
-50 -55 0
-51 -52 0
-51 -53 0
-51 -54 0
-51 -55 0
-52 -53 0
-52 -54 0
-52 -55 0
-53 -54 0
-53 -55 0
-54 -55 0
-56 -57 0
-56 -58 0
-56 -59 0
-56 -60 0
-56 -61 0
-57 -58 0
-57 -59 0
-57 -60 0
-57 -61 0
-58 -59 0
-58 -60 0
-58 -61 0
-59 -60 0
-59 -61 0
-60 -61 0
-62 -63 0
-62 -64 0
-62 -65 0
-62 -66 0
-62 -67 0
-63 -64 0
-63 -65 0
-63 -66 0
-63 -67 0
-64 -65 0
-64 -66 0
-64 -67 0
-65 -66 0
-65 -67 0
-66 -67 0
-68 -69 0
-68 -70 0
-68 -71 0
-68 -72 0
-68 -73 0
-69 -70 0
-69 -71 0
-69 -72 0
-69 -73 0
-70 -71 0
-70 -72 0
-70 -73 0
-71 -72 0
-71 -73 0
-72 -73 0
-74 -75 0
-74 -76 0
-74 -77 0
-74 -78 0
-74 -79 0
-75 -76 0
-75 -77 0
-75 -78 0
-75 -79 0
-76 -77 0
-76 -78 0
-76 -79 0
-77 -78 0
-77 -79 0
-78 -79 0
-80 -81 0
-80 -82 0
-80 -83 0
-80 -84 0
-80 -85 0
-81 -82 0
-81 -83 0
-81 -84 0
-81 -85 0
-82 -83 0
-82 -84 0
-82 -85 0
-83 -84 0
-83 -85 0
-84 -85 0
c graceful clauses
-1 -8 -50 0
-1 -8 -51 0
-1 -8 -52 0
-1 -8 -53 0
-1 -8 -54 0
-1 -8 -55 0
-1 -9 -51 0
-1 -9 -52 0
-1 -9 -53 0
-1 -9 -54 0
-1 -9 -55 0
-1 -10 -50 0
-1 -10 -52 0
-1 -10 -53 0
-1 -10 -54 0
-1 -10 -55 0
-1 -11 -50 0
-1 -11 -51 0
-1 -11 -53 0
-1 -11 -54 0
-1 -11 -55 0
-1 -12 -50 0
-1 -12 -51 0
-1 -12 -52 0
-1 -12 -54 0
-1 -12 -55 0
-1 -13 -50 0
-1 -13 -51 0
-1 -13 -52 0
-1 -13 -53 0
-1 -13 -55 0
-1 -14 -50 0
-1 -14 -51 0
-1 -14 -52 0
-1 -14 -53 0
-1 -14 -54 0
-2 -8 -51 0
-2 -8 -52 0
-2 -8 -53 0
-2 -8 -54 0
-2 -8 -55 0
-2 -9 -50 0
-2 -9 -51 0
-2 -9 -52 0
-2 -9 -53 0
-2 -9 -54 0
-2 -9 -55 0
-2 -10 -51 0
-2 -10 -52 0
-2 -10 -53 0
-2 -10 -54 0
-2 -10 -55 0
-2 -11 -50 0
-2 -11 -52 0
-2 -11 -53 0
-2 -11 -54 0
-2 -11 -55 0
-2 -12 -50 0
-2 -12 -51 0
-2 -12 -53 0
-2 -12 -54 0
-2 -12 -55 0
-2 -13 -50 0
-2 -13 -51 0
-2 -13 -52 0
-2 -13 -54 0
-2 -13 -55 0
-2 -14 -50 0
-2 -14 -51 0
-2 -14 -52 0
-2 -14 -53 0
-2 -14 -55 0
-3 -8 -50 0
-3 -8 -52 0
-3 -8 -53 0
-3 -8 -54 0
-3 -8 -55 0
-3 -9 -51 0
-3 -9 -52 0
-3 -9 -53 0
-3 -9 -54 0
-3 -9 -55 0
-3 -10 -50 0
-3 -10 -51 0
-3 -10 -52 0
-3 -10 -53 0
-3 -10 -54 0
-3 -10 -55 0
-3 -11 -51 0
-3 -11 -52 0
-3 -11 -53 0
-3 -11 -54 0
-3 -11 -55 0
-3 -12 -50 0
-3 -12 -52 0
-3 -12 -53 0
-3 -12 -54 0
-3 -12 -55 0
-3 -13 -50 0
-3 -13 -51 0
-3 -13 -53 0
-3 -13 -54 0
-3 -13 -55 0
-3 -14 -50 0
-3 -14 -51 0
-3 -14 -52 0
-3 -14 -54 0
-3 -14 -55 0
-4 -8 -50 0
-4 -8 -51 0
-4 -8 -53 0
-4 -8 -54 0
-4 -8 -55 0
-4 -9 -50 0
-4 -9 -52 0
-4 -9 -53 0
-4 -9 -54 0
-4 -9 -55 0
-4 -10 -51 0
-4 -10 -52 0
-4 -10 -53 0
-4 -10 -54 0
-4 -10 -55 0
-4 -11 -50 0
-4 -11 -51 0
-4 -11 -52 0
-4 -11 -53 0
-4 -11 -54 0
-4 -11 -55 0
-4 -12 -51 0
-4 -12 -52 0
-4 -12 -53 0
-4 -12 -54 0
-4 -12 -55 0
-4 -13 -50 0
-4 -13 -52 0
-4 -13 -53 0
-4 -13 -54 0
-4 -13 -55 0
-4 -14 -50 0
-4 -14 -51 0
-4 -14 -53 0
-4 -14 -54 0
-4 -14 -55 0
-5 -8 -50 0
-5 -8 -51 0
-5 -8 -52 0
-5 -8 -54 0
-5 -8 -55 0
-5 -9 -50 0
-5 -9 -51 0
-5 -9 -53 0
-5 -9 -54 0
-5 -9 -55 0
-5 -10 -50 0
-5 -10 -52 0
-5 -10 -53 0
-5 -10 -54 0
-5 -10 -55 0
-5 -11 -51 0
-5 -11 -52 0
-5 -11 -53 0
-5 -11 -54 0
-5 -11 -55 0
-5 -12 -50 0
-5 -12 -51 0
-5 -12 -52 0
-5 -12 -53 0
-5 -12 -54 0
-5 -12 -55 0
-5 -13 -51 0
-5 -13 -52 0
-5 -13 -53 0
-5 -13 -54 0
-5 -13 -55 0
-5 -14 -50 0
-5 -14 -52 0
-5 -14 -53 0
-5 -14 -54 0
-5 -14 -55 0
-6 -8 -50 0
-6 -8 -51 0
-6 -8 -52 0
-6 -8 -53 0
-6 -8 -55 0
-6 -9 -50 0
-6 -9 -51 0
-6 -9 -52 0
-6 -9 -54 0
-6 -9 -55 0
-6 -10 -50 0
-6 -10 -51 0
-6 -10 -53 0
-6 -10 -54 0
-6 -10 -55 0
-6 -11 -50 0
-6 -11 -52 0
-6 -11 -53 0
-6 -11 -54 0
-6 -11 -55 0
-6 -12 -51 0
-6 -12 -52 0
-6 -12 -53 0
-6 -12 -54 0
-6 -12 -55 0
-6 -13 -50 0
-6 -13 -51 0
-6 -13 -52 0
-6 -13 -53 0
-6 -13 -54 0
-6 -13 -55 0
-6 -14 -51 0
-6 -14 -52 0
-6 -14 -53 0
-6 -14 -54 0
-6 -14 -55 0
-7 -8 -50 0
-7 -8 -51 0
-7 -8 -52 0
-7 -8 -53 0
-7 -8 -54 0
-7 -9 -50 0
-7 -9 -51 0
-7 -9 -52 0
-7 -9 -53 0
-7 -9 -55 0
-7 -10 -50 0
-7 -10 -51 0
-7 -10 -52 0
-7 -10 -54 0
-7 -10 -55 0
-7 -11 -50 0
-7 -11 -51 0
-7 -11 -53 0
-7 -11 -54 0
-7 -11 -55 0
-7 -12 -50 0
-7 -12 -52 0
-7 -12 -53 0
-7 -12 -54 0
-7 -12 -55 0
-7 -13 -51 0
-7 -13 -52 0
-7 -13 -53 0
-7 -13 -54 0
-7 -13 -55 0
-7 -14 -50 0
-7 -14 -51 0
-7 -14 -52 0
-7 -14 -53 0
-7 -14 -54 0
-7 -14 -55 0
-1 -15 -56 0
-1 -15 -57 0
-1 -15 -58 0
-1 -15 -59 0
-1 -15 -60 0
-1 -15 -61 0
-1 -16 -57 0
-1 -16 -58 0
-1 -16 -59 0
-1 -16 -60 0
-1 -16 -61 0
-1 -17 -56 0
-1 -17 -58 0
-1 -17 -59 0
-1 -17 -60 0
-1 -17 -61 0
-1 -18 -56 0
-1 -18 -57 0
-1 -18 -59 0
-1 -18 -60 0
-1 -18 -61 0
-1 -19 -56 0
-1 -19 -57 0
-1 -19 -58 0
-1 -19 -60 0
-1 -19 -61 0
-1 -20 -56 0
-1 -20 -57 0
-1 -20 -58 0
-1 -20 -59 0
-1 -20 -61 0
-1 -21 -56 0
-1 -21 -57 0
-1 -21 -58 0
-1 -21 -59 0
-1 -21 -60 0
-2 -15 -57 0
-2 -15 -58 0
-2 -15 -59 0
-2 -15 -60 0
-2 -15 -61 0
-2 -16 -56 0
-2 -16 -57 0
-2 -16 -58 0
-2 -16 -59 0
-2 -16 -60 0
-2 -16 -61 0
-2 -17 -57 0
-2 -17 -58 0
-2 -17 -59 0
-2 -17 -60 0
-2 -17 -61 0
-2 -18 -56 0
-2 -18 -58 0
-2 -18 -59 0
-2 -18 -60 0
-2 -18 -61 0
-2 -19 -56 0
-2 -19 -57 0
-2 -19 -59 0
-2 -19 -60 0
-2 -19 -61 0
-2 -20 -56 0
-2 -20 -57 0
-2 -20 -58 0
-2 -20 -60 0
-2 -20 -61 0
-2 -21 -56 0
-2 -21 -57 0
-2 -21 -58 0
-2 -21 -59 0
-2 -21 -61 0
-3 -15 -56 0
-3 -15 -58 0
-3 -15 -59 0
-3 -15 -60 0
-3 -15 -61 0
-3 -16 -57 0
-3 -16 -58 0
-3 -16 -59 0
-3 -16 -60 0
-3 -16 -61 0
-3 -17 -56 0
-3 -17 -57 0
-3 -17 -58 0
-3 -17 -59 0
-3 -17 -60 0
-3 -17 -61 0
-3 -18 -57 0
-3 -18 -58 0
-3 -18 -59 0
-3 -18 -60 0
-3 -18 -61 0
-3 -19 -56 0
-3 -19 -58 0
-3 -19 -59 0
-3 -19 -60 0
-3 -19 -61 0
-3 -20 -56 0
-3 -20 -57 0
-3 -20 -59 0
-3 -20 -60 0
-3 -20 -61 0
-3 -21 -56 0
-3 -21 -57 0
-3 -21 -58 0
-3 -21 -60 0
-3 -21 -61 0
-4 -15 -56 0
-4 -15 -57 0
-4 -15 -59 0
-4 -15 -60 0
-4 -15 -61 0
-4 -16 -56 0
-4 -16 -58 0
-4 -16 -59 0
-4 -16 -60 0
-4 -16 -61 0
-4 -17 -57 0
-4 -17 -58 0
-4 -17 -59 0
-4 -17 -60 0
-4 -17 -61 0
-4 -18 -56 0
-4 -18 -57 0
-4 -18 -58 0
-4 -18 -59 0
-4 -18 -60 0
-4 -18 -61 0
-4 -19 -57 0
-4 -19 -58 0
-4 -19 -59 0
-4 -19 -60 0
-4 -19 -61 0
-4 -20 -56 0
-4 -20 -58 0
-4 -20 -59 0
-4 -20 -60 0
-4 -20 -61 0
-4 -21 -56 0
-4 -21 -57 0
-4 -21 -59 0
-4 -21 -60 0
-4 -21 -61 0
-5 -15 -56 0
-5 -15 -57 0
-5 -15 -58 0
-5 -15 -60 0
-5 -15 -61 0
-5 -16 -56 0
-5 -16 -57 0
-5 -16 -59 0
-5 -16 -60 0
-5 -16 -61 0
-5 -17 -56 0
-5 -17 -58 0
-5 -17 -59 0
-5 -17 -60 0
-5 -17 -61 0
-5 -18 -57 0
-5 -18 -58 0
-5 -18 -59 0
-5 -18 -60 0
-5 -18 -61 0
-5 -19 -56 0
-5 -19 -57 0
-5 -19 -58 0
-5 -19 -59 0
-5 -19 -60 0
-5 -19 -61 0
-5 -20 -57 0
-5 -20 -58 0
-5 -20 -59 0
-5 -20 -60 0
-5 -20 -61 0
-5 -21 -56 0
-5 -21 -58 0
-5 -21 -59 0
-5 -21 -60 0
-5 -21 -61 0
-6 -15 -56 0
-6 -15 -57 0
-6 -15 -58 0
-6 -15 -59 0
-6 -15 -61 0
-6 -16 -56 0
-6 -16 -57 0
-6 -16 -58 0
-6 -16 -60 0
-6 -16 -61 0
-6 -17 -56 0
-6 -17 -57 0
-6 -17 -59 0
-6 -17 -60 0
-6 -17 -61 0
-6 -18 -56 0
-6 -18 -58 0
-6 -18 -59 0
-6 -18 -60 0
-6 -18 -61 0
-6 -19 -57 0
-6 -19 -58 0
-6 -19 -59 0
-6 -19 -60 0
-6 -19 -61 0
-6 -20 -56 0
-6 -20 -57 0
-6 -20 -58 0
-6 -20 -59 0
-6 -20 -60 0
-6 -20 -61 0
-6 -21 -57 0
-6 -21 -58 0
-6 -21 -59 0
-6 -21 -60 0
-6 -21 -61 0
-7 -15 -56 0
-7 -15 -57 0
-7 -15 -58 0
-7 -15 -59 0
-7 -15 -60 0
-7 -16 -56 0
-7 -16 -57 0
-7 -16 -58 0
-7 -16 -59 0
-7 -16 -61 0
-7 -17 -56 0
-7 -17 -57 0
-7 -17 -58 0
-7 -17 -60 0
-7 -17 -61 0
-7 -18 -56 0
-7 -18 -57 0
-7 -18 -59 0
-7 -18 -60 0
-7 -18 -61 0
-7 -19 -56 0
-7 -19 -58 0
-7 -19 -59 0
-7 -19 -60 0
-7 -19 -61 0
-7 -20 -57 0
-7 -20 -58 0
-7 -20 -59 0
-7 -20 -60 0
-7 -20 -61 0
-7 -21 -56 0
-7 -21 -57 0
-7 -21 -58 0
-7 -21 -59 0
-7 -21 -60 0
-7 -21 -61 0
-1 -22 -62 0
-1 -22 -63 0
-1 -22 -64 0
-1 -22 -65 0
-1 -22 -66 0
-1 -22 -67 0
-1 -23 -63 0
-1 -23 -64 0
-1 -23 -65 0
-1 -23 -66 0
-1 -23 -67 0
-1 -24 -62 0
-1 -24 -64 0
-1 -24 -65 0
-1 -24 -66 0
-1 -24 -67 0
-1 -25 -62 0
-1 -25 -63 0
-1 -25 -65 0
-1 -25 -66 0
-1 -25 -67 0
-1 -26 -62 0
-1 -26 -63 0
-1 -26 -64 0
-1 -26 -66 0
-1 -26 -67 0
-1 -27 -62 0
-1 -27 -63 0
-1 -27 -64 0
-1 -27 -65 0
-1 -27 -67 0
-1 -28 -62 0
-1 -28 -63 0
-1 -28 -64 0
-1 -28 -65 0
-1 -28 -66 0
-2 -22 -63 0
-2 -22 -64 0
-2 -22 -65 0
-2 -22 -66 0
-2 -22 -67 0
-2 -23 -62 0
-2 -23 -63 0
-2 -23 -64 0
-2 -23 -65 0
-2 -23 -66 0
-2 -23 -67 0
-2 -24 -63 0
-2 -24 -64 0
-2 -24 -65 0
-2 -24 -66 0
-2 -24 -67 0
-2 -25 -62 0
-2 -25 -64 0
-2 -25 -65 0
-2 -25 -66 0
-2 -25 -67 0
-2 -26 -62 0
-2 -26 -63 0
-2 -26 -65 0
-2 -26 -66 0
-2 -26 -67 0
-2 -27 -62 0
-2 -27 -63 0
-2 -27 -64 0
-2 -27 -66 0
-2 -27 -67 0
-2 -28 -62 0
-2 -28 -63 0
-2 -28 -64 0
-2 -28 -65 0
-2 -28 -67 0
-3 -22 -62 0
-3 -22 -64 0
-3 -22 -65 0
-3 -22 -66 0
-3 -22 -67 0
-3 -23 -63 0
-3 -23 -64 0
-3 -23 -65 0
-3 -23 -66 0
-3 -23 -67 0
-3 -24 -62 0
-3 -24 -63 0
-3 -24 -64 0
-3 -24 -65 0
-3 -24 -66 0
-3 -24 -67 0
-3 -25 -63 0
-3 -25 -64 0
-3 -25 -65 0
-3 -25 -66 0
-3 -25 -67 0
-3 -26 -62 0
-3 -26 -64 0
-3 -26 -65 0
-3 -26 -66 0
-3 -26 -67 0
-3 -27 -62 0
-3 -27 -63 0
-3 -27 -65 0
-3 -27 -66 0
-3 -27 -67 0
-3 -28 -62 0
-3 -28 -63 0
-3 -28 -64 0
-3 -28 -66 0
-3 -28 -67 0
-4 -22 -62 0
-4 -22 -63 0
-4 -22 -65 0
-4 -22 -66 0
-4 -22 -67 0
-4 -23 -62 0
-4 -23 -64 0
-4 -23 -65 0
-4 -23 -66 0
-4 -23 -67 0
-4 -24 -63 0
-4 -24 -64 0
-4 -24 -65 0
-4 -24 -66 0
-4 -24 -67 0
-4 -25 -62 0
-4 -25 -63 0
-4 -25 -64 0
-4 -25 -65 0
-4 -25 -66 0
-4 -25 -67 0
-4 -26 -63 0
-4 -26 -64 0
-4 -26 -65 0
-4 -26 -66 0
-4 -26 -67 0
-4 -27 -62 0
-4 -27 -64 0
-4 -27 -65 0
-4 -27 -66 0
-4 -27 -67 0
-4 -28 -62 0
-4 -28 -63 0
-4 -28 -65 0
-4 -28 -66 0
-4 -28 -67 0
-5 -22 -62 0
-5 -22 -63 0
-5 -22 -64 0
-5 -22 -66 0
-5 -22 -67 0
-5 -23 -62 0
-5 -23 -63 0
-5 -23 -65 0
-5 -23 -66 0
-5 -23 -67 0
-5 -24 -62 0
-5 -24 -64 0
-5 -24 -65 0
-5 -24 -66 0
-5 -24 -67 0
-5 -25 -63 0
-5 -25 -64 0
-5 -25 -65 0
-5 -25 -66 0
-5 -25 -67 0
-5 -26 -62 0
-5 -26 -63 0
-5 -26 -64 0
-5 -26 -65 0
-5 -26 -66 0
-5 -26 -67 0
-5 -27 -63 0
-5 -27 -64 0
-5 -27 -65 0
-5 -27 -66 0
-5 -27 -67 0
-5 -28 -62 0
-5 -28 -64 0
-5 -28 -65 0
-5 -28 -66 0
-5 -28 -67 0
-6 -22 -62 0
-6 -22 -63 0
-6 -22 -64 0
-6 -22 -65 0
-6 -22 -67 0
-6 -23 -62 0
-6 -23 -63 0
-6 -23 -64 0
-6 -23 -66 0
-6 -23 -67 0
-6 -24 -62 0
-6 -24 -63 0
-6 -24 -65 0
-6 -24 -66 0
-6 -24 -67 0
-6 -25 -62 0
-6 -25 -64 0
-6 -25 -65 0
-6 -25 -66 0
-6 -25 -67 0
-6 -26 -63 0
-6 -26 -64 0
-6 -26 -65 0
-6 -26 -66 0
-6 -26 -67 0
-6 -27 -62 0
-6 -27 -63 0
-6 -27 -64 0
-6 -27 -65 0
-6 -27 -66 0
-6 -27 -67 0
-6 -28 -63 0
-6 -28 -64 0
-6 -28 -65 0
-6 -28 -66 0
-6 -28 -67 0
-7 -22 -62 0
-7 -22 -63 0
-7 -22 -64 0
-7 -22 -65 0
-7 -22 -66 0
-7 -23 -62 0
-7 -23 -63 0
-7 -23 -64 0
-7 -23 -65 0
-7 -23 -67 0
-7 -24 -62 0
-7 -24 -63 0
-7 -24 -64 0
-7 -24 -66 0
-7 -24 -67 0
-7 -25 -62 0
-7 -25 -63 0
-7 -25 -65 0
-7 -25 -66 0
-7 -25 -67 0
-7 -26 -62 0
-7 -26 -64 0
-7 -26 -65 0
-7 -26 -66 0
-7 -26 -67 0
-7 -27 -63 0
-7 -27 -64 0
-7 -27 -65 0
-7 -27 -66 0
-7 -27 -67 0
-7 -28 -62 0
-7 -28 -63 0
-7 -28 -64 0
-7 -28 -65 0
-7 -28 -66 0
-7 -28 -67 0
-1 -29 -68 0
-1 -29 -69 0
-1 -29 -70 0
-1 -29 -71 0
-1 -29 -72 0
-1 -29 -73 0
-1 -30 -69 0
-1 -30 -70 0
-1 -30 -71 0
-1 -30 -72 0
-1 -30 -73 0
-1 -31 -68 0
-1 -31 -70 0
-1 -31 -71 0
-1 -31 -72 0
-1 -31 -73 0
-1 -32 -68 0
-1 -32 -69 0
-1 -32 -71 0
-1 -32 -72 0
-1 -32 -73 0
-1 -33 -68 0
-1 -33 -69 0
-1 -33 -70 0
-1 -33 -72 0
-1 -33 -73 0
-1 -34 -68 0
-1 -34 -69 0
-1 -34 -70 0
-1 -34 -71 0
-1 -34 -73 0
-1 -35 -68 0
-1 -35 -69 0
-1 -35 -70 0
-1 -35 -71 0
-1 -35 -72 0
-2 -29 -69 0
-2 -29 -70 0
-2 -29 -71 0
-2 -29 -72 0
-2 -29 -73 0
-2 -30 -68 0
-2 -30 -69 0
-2 -30 -70 0
-2 -30 -71 0
-2 -30 -72 0
-2 -30 -73 0
-2 -31 -69 0
-2 -31 -70 0
-2 -31 -71 0
-2 -31 -72 0
-2 -31 -73 0
-2 -32 -68 0
-2 -32 -70 0
-2 -32 -71 0
-2 -32 -72 0
-2 -32 -73 0
-2 -33 -68 0
-2 -33 -69 0
-2 -33 -71 0
-2 -33 -72 0
-2 -33 -73 0
-2 -34 -68 0
-2 -34 -69 0
-2 -34 -70 0
-2 -34 -72 0
-2 -34 -73 0
-2 -35 -68 0
-2 -35 -69 0
-2 -35 -70 0
-2 -35 -71 0
-2 -35 -73 0
-3 -29 -68 0
-3 -29 -70 0
-3 -29 -71 0
-3 -29 -72 0
-3 -29 -73 0
-3 -30 -69 0
-3 -30 -70 0
-3 -30 -71 0
-3 -30 -72 0
-3 -30 -73 0
-3 -31 -68 0
-3 -31 -69 0
-3 -31 -70 0
-3 -31 -71 0
-3 -31 -72 0
-3 -31 -73 0
-3 -32 -69 0
-3 -32 -70 0
-3 -32 -71 0
-3 -32 -72 0
-3 -32 -73 0
-3 -33 -68 0
-3 -33 -70 0
-3 -33 -71 0
-3 -33 -72 0
-3 -33 -73 0
-3 -34 -68 0
-3 -34 -69 0
-3 -34 -71 0
-3 -34 -72 0
-3 -34 -73 0
-3 -35 -68 0
-3 -35 -69 0
-3 -35 -70 0
-3 -35 -72 0
-3 -35 -73 0
-4 -29 -68 0
-4 -29 -69 0
-4 -29 -71 0
-4 -29 -72 0
-4 -29 -73 0
-4 -30 -68 0
-4 -30 -70 0
-4 -30 -71 0
-4 -30 -72 0
-4 -30 -73 0
-4 -31 -69 0
-4 -31 -70 0
-4 -31 -71 0
-4 -31 -72 0
-4 -31 -73 0
-4 -32 -68 0
-4 -32 -69 0
-4 -32 -70 0
-4 -32 -71 0
-4 -32 -72 0
-4 -32 -73 0
-4 -33 -69 0
-4 -33 -70 0
-4 -33 -71 0
-4 -33 -72 0
-4 -33 -73 0
-4 -34 -68 0
-4 -34 -70 0
-4 -34 -71 0
-4 -34 -72 0
-4 -34 -73 0
-4 -35 -68 0
-4 -35 -69 0
-4 -35 -71 0
-4 -35 -72 0
-4 -35 -73 0
-5 -29 -68 0
-5 -29 -69 0
-5 -29 -70 0
-5 -29 -72 0
-5 -29 -73 0
-5 -30 -68 0
-5 -30 -69 0
-5 -30 -71 0
-5 -30 -72 0
-5 -30 -73 0
-5 -31 -68 0
-5 -31 -70 0
-5 -31 -71 0
-5 -31 -72 0
-5 -31 -73 0
-5 -32 -69 0
-5 -32 -70 0
-5 -32 -71 0
-5 -32 -72 0
-5 -32 -73 0
-5 -33 -68 0
-5 -33 -69 0
-5 -33 -70 0
-5 -33 -71 0
-5 -33 -72 0
-5 -33 -73 0
-5 -34 -69 0
-5 -34 -70 0
-5 -34 -71 0
-5 -34 -72 0
-5 -34 -73 0
-5 -35 -68 0
-5 -35 -70 0
-5 -35 -71 0
-5 -35 -72 0
-5 -35 -73 0
-6 -29 -68 0
-6 -29 -69 0
-6 -29 -70 0
-6 -29 -71 0
-6 -29 -73 0
-6 -30 -68 0
-6 -30 -69 0
-6 -30 -70 0
-6 -30 -72 0
-6 -30 -73 0
-6 -31 -68 0
-6 -31 -69 0
-6 -31 -71 0
-6 -31 -72 0
-6 -31 -73 0
-6 -32 -68 0
-6 -32 -70 0
-6 -32 -71 0
-6 -32 -72 0
-6 -32 -73 0
-6 -33 -69 0
-6 -33 -70 0
-6 -33 -71 0
-6 -33 -72 0
-6 -33 -73 0
-6 -34 -68 0
-6 -34 -69 0
-6 -34 -70 0
-6 -34 -71 0
-6 -34 -72 0
-6 -34 -73 0
-6 -35 -69 0
-6 -35 -70 0
-6 -35 -71 0
-6 -35 -72 0
-6 -35 -73 0
-7 -29 -68 0
-7 -29 -69 0
-7 -29 -70 0
-7 -29 -71 0
-7 -29 -72 0
-7 -30 -68 0
-7 -30 -69 0
-7 -30 -70 0
-7 -30 -71 0
-7 -30 -73 0
-7 -31 -68 0
-7 -31 -69 0
-7 -31 -70 0
-7 -31 -72 0
-7 -31 -73 0
-7 -32 -68 0
-7 -32 -69 0
-7 -32 -71 0
-7 -32 -72 0
-7 -32 -73 0
-7 -33 -68 0
-7 -33 -70 0
-7 -33 -71 0
-7 -33 -72 0
-7 -33 -73 0
-7 -34 -69 0
-7 -34 -70 0
-7 -34 -71 0
-7 -34 -72 0
-7 -34 -73 0
-7 -35 -68 0
-7 -35 -69 0
-7 -35 -70 0
-7 -35 -71 0
-7 -35 -72 0
-7 -35 -73 0
-1 -36 -74 0
-1 -36 -75 0
-1 -36 -76 0
-1 -36 -77 0
-1 -36 -78 0
-1 -36 -79 0
-1 -37 -75 0
-1 -37 -76 0
-1 -37 -77 0
-1 -37 -78 0
-1 -37 -79 0
-1 -38 -74 0
-1 -38 -76 0
-1 -38 -77 0
-1 -38 -78 0
-1 -38 -79 0
-1 -39 -74 0
-1 -39 -75 0
-1 -39 -77 0
-1 -39 -78 0
-1 -39 -79 0
-1 -40 -74 0
-1 -40 -75 0
-1 -40 -76 0
-1 -40 -78 0
-1 -40 -79 0
-1 -41 -74 0
-1 -41 -75 0
-1 -41 -76 0
-1 -41 -77 0
-1 -41 -79 0
-1 -42 -74 0
-1 -42 -75 0
-1 -42 -76 0
-1 -42 -77 0
-1 -42 -78 0
-2 -36 -75 0
-2 -36 -76 0
-2 -36 -77 0
-2 -36 -78 0
-2 -36 -79 0
-2 -37 -74 0
-2 -37 -75 0
-2 -37 -76 0
-2 -37 -77 0
-2 -37 -78 0
-2 -37 -79 0
-2 -38 -75 0
-2 -38 -76 0
-2 -38 -77 0
-2 -38 -78 0
-2 -38 -79 0
-2 -39 -74 0
-2 -39 -76 0
-2 -39 -77 0
-2 -39 -78 0
-2 -39 -79 0
-2 -40 -74 0
-2 -40 -75 0
-2 -40 -77 0
-2 -40 -78 0
-2 -40 -79 0
-2 -41 -74 0
-2 -41 -75 0
-2 -41 -76 0
-2 -41 -78 0
-2 -41 -79 0
-2 -42 -74 0
-2 -42 -75 0
-2 -42 -76 0
-2 -42 -77 0
-2 -42 -79 0
-3 -36 -74 0
-3 -36 -76 0
-3 -36 -77 0
-3 -36 -78 0
-3 -36 -79 0
-3 -37 -75 0
-3 -37 -76 0
-3 -37 -77 0
-3 -37 -78 0
-3 -37 -79 0
-3 -38 -74 0
-3 -38 -75 0
-3 -38 -76 0
-3 -38 -77 0
-3 -38 -78 0
-3 -38 -79 0
-3 -39 -75 0
-3 -39 -76 0
-3 -39 -77 0
-3 -39 -78 0
-3 -39 -79 0
-3 -40 -74 0
-3 -40 -76 0
-3 -40 -77 0
-3 -40 -78 0
-3 -40 -79 0
-3 -41 -74 0
-3 -41 -75 0
-3 -41 -77 0
-3 -41 -78 0
-3 -41 -79 0
-3 -42 -74 0
-3 -42 -75 0
-3 -42 -76 0
-3 -42 -78 0
-3 -42 -79 0
-4 -36 -74 0
-4 -36 -75 0
-4 -36 -77 0
-4 -36 -78 0
-4 -36 -79 0
-4 -37 -74 0
-4 -37 -76 0
-4 -37 -77 0
-4 -37 -78 0
-4 -37 -79 0
-4 -38 -75 0
-4 -38 -76 0
-4 -38 -77 0
-4 -38 -78 0
-4 -38 -79 0
-4 -39 -74 0
-4 -39 -75 0
-4 -39 -76 0
-4 -39 -77 0
-4 -39 -78 0
-4 -39 -79 0
-4 -40 -75 0
-4 -40 -76 0
-4 -40 -77 0
-4 -40 -78 0
-4 -40 -79 0
-4 -41 -74 0
-4 -41 -76 0
-4 -41 -77 0
-4 -41 -78 0
-4 -41 -79 0
-4 -42 -74 0
-4 -42 -75 0
-4 -42 -77 0
-4 -42 -78 0
-4 -42 -79 0
-5 -36 -74 0
-5 -36 -75 0
-5 -36 -76 0
-5 -36 -78 0
-5 -36 -79 0
-5 -37 -74 0
-5 -37 -75 0
-5 -37 -77 0
-5 -37 -78 0
-5 -37 -79 0
-5 -38 -74 0
-5 -38 -76 0
-5 -38 -77 0
-5 -38 -78 0
-5 -38 -79 0
-5 -39 -75 0
-5 -39 -76 0
-5 -39 -77 0
-5 -39 -78 0
-5 -39 -79 0
-5 -40 -74 0
-5 -40 -75 0
-5 -40 -76 0
-5 -40 -77 0
-5 -40 -78 0
-5 -40 -79 0
-5 -41 -75 0
-5 -41 -76 0
-5 -41 -77 0
-5 -41 -78 0
-5 -41 -79 0
-5 -42 -74 0
-5 -42 -76 0
-5 -42 -77 0
-5 -42 -78 0
-5 -42 -79 0
-6 -36 -74 0
-6 -36 -75 0
-6 -36 -76 0
-6 -36 -77 0
-6 -36 -79 0
-6 -37 -74 0
-6 -37 -75 0
-6 -37 -76 0
-6 -37 -78 0
-6 -37 -79 0
-6 -38 -74 0
-6 -38 -75 0
-6 -38 -77 0
-6 -38 -78 0
-6 -38 -79 0
-6 -39 -74 0
-6 -39 -76 0
-6 -39 -77 0
-6 -39 -78 0
-6 -39 -79 0
-6 -40 -75 0
-6 -40 -76 0
-6 -40 -77 0
-6 -40 -78 0
-6 -40 -79 0
-6 -41 -74 0
-6 -41 -75 0
-6 -41 -76 0
-6 -41 -77 0
-6 -41 -78 0
-6 -41 -79 0
-6 -42 -75 0
-6 -42 -76 0
-6 -42 -77 0
-6 -42 -78 0
-6 -42 -79 0
-7 -36 -74 0
-7 -36 -75 0
-7 -36 -76 0
-7 -36 -77 0
-7 -36 -78 0
-7 -37 -74 0
-7 -37 -75 0
-7 -37 -76 0
-7 -37 -77 0
-7 -37 -79 0
-7 -38 -74 0
-7 -38 -75 0
-7 -38 -76 0
-7 -38 -78 0
-7 -38 -79 0
-7 -39 -74 0
-7 -39 -75 0
-7 -39 -77 0
-7 -39 -78 0
-7 -39 -79 0
-7 -40 -74 0
-7 -40 -76 0
-7 -40 -77 0
-7 -40 -78 0
-7 -40 -79 0
-7 -41 -75 0
-7 -41 -76 0
-7 -41 -77 0
-7 -41 -78 0
-7 -41 -79 0
-7 -42 -74 0
-7 -42 -75 0
-7 -42 -76 0
-7 -42 -77 0
-7 -42 -78 0
-7 -42 -79 0
-1 -43 -80 0
-1 -43 -81 0
-1 -43 -82 0
-1 -43 -83 0
-1 -43 -84 0
-1 -43 -85 0
-1 -44 -81 0
-1 -44 -82 0
-1 -44 -83 0
-1 -44 -84 0
-1 -44 -85 0
-1 -45 -80 0
-1 -45 -82 0
-1 -45 -83 0
-1 -45 -84 0
-1 -45 -85 0
-1 -46 -80 0
-1 -46 -81 0
-1 -46 -83 0
-1 -46 -84 0
-1 -46 -85 0
-1 -47 -80 0
-1 -47 -81 0
-1 -47 -82 0
-1 -47 -84 0
-1 -47 -85 0
-1 -48 -80 0
-1 -48 -81 0
-1 -48 -82 0
-1 -48 -83 0
-1 -48 -85 0
-1 -49 -80 0
-1 -49 -81 0
-1 -49 -82 0
-1 -49 -83 0
-1 -49 -84 0
-2 -43 -81 0
-2 -43 -82 0
-2 -43 -83 0
-2 -43 -84 0
-2 -43 -85 0
-2 -44 -80 0
-2 -44 -81 0
-2 -44 -82 0
-2 -44 -83 0
-2 -44 -84 0
-2 -44 -85 0
-2 -45 -81 0
-2 -45 -82 0
-2 -45 -83 0
-2 -45 -84 0
-2 -45 -85 0
-2 -46 -80 0
-2 -46 -82 0
-2 -46 -83 0
-2 -46 -84 0
-2 -46 -85 0
-2 -47 -80 0
-2 -47 -81 0
-2 -47 -83 0
-2 -47 -84 0
-2 -47 -85 0
-2 -48 -80 0
-2 -48 -81 0
-2 -48 -82 0
-2 -48 -84 0
-2 -48 -85 0
-2 -49 -80 0
-2 -49 -81 0
-2 -49 -82 0
-2 -49 -83 0
-2 -49 -85 0
-3 -43 -80 0
-3 -43 -82 0
-3 -43 -83 0
-3 -43 -84 0
-3 -43 -85 0
-3 -44 -81 0
-3 -44 -82 0
-3 -44 -83 0
-3 -44 -84 0
-3 -44 -85 0
-3 -45 -80 0
-3 -45 -81 0
-3 -45 -82 0
-3 -45 -83 0
-3 -45 -84 0
-3 -45 -85 0
-3 -46 -81 0
-3 -46 -82 0
-3 -46 -83 0
-3 -46 -84 0
-3 -46 -85 0
-3 -47 -80 0
-3 -47 -82 0
-3 -47 -83 0
-3 -47 -84 0
-3 -47 -85 0
-3 -48 -80 0
-3 -48 -81 0
-3 -48 -83 0
-3 -48 -84 0
-3 -48 -85 0
-3 -49 -80 0
-3 -49 -81 0
-3 -49 -82 0
-3 -49 -84 0
-3 -49 -85 0
-4 -43 -80 0
-4 -43 -81 0
-4 -43 -83 0
-4 -43 -84 0
-4 -43 -85 0
-4 -44 -80 0
-4 -44 -82 0
-4 -44 -83 0
-4 -44 -84 0
-4 -44 -85 0
-4 -45 -81 0
-4 -45 -82 0
-4 -45 -83 0
-4 -45 -84 0
-4 -45 -85 0
-4 -46 -80 0
-4 -46 -81 0
-4 -46 -82 0
-4 -46 -83 0
-4 -46 -84 0
-4 -46 -85 0
-4 -47 -81 0
-4 -47 -82 0
-4 -47 -83 0
-4 -47 -84 0
-4 -47 -85 0
-4 -48 -80 0
-4 -48 -82 0
-4 -48 -83 0
-4 -48 -84 0
-4 -48 -85 0
-4 -49 -80 0
-4 -49 -81 0
-4 -49 -83 0
-4 -49 -84 0
-4 -49 -85 0
-5 -43 -80 0
-5 -43 -81 0
-5 -43 -82 0
-5 -43 -84 0
-5 -43 -85 0
-5 -44 -80 0
-5 -44 -81 0
-5 -44 -83 0
-5 -44 -84 0
-5 -44 -85 0
-5 -45 -80 0
-5 -45 -82 0
-5 -45 -83 0
-5 -45 -84 0
-5 -45 -85 0
-5 -46 -81 0
-5 -46 -82 0
-5 -46 -83 0
-5 -46 -84 0
-5 -46 -85 0
-5 -47 -80 0
-5 -47 -81 0
-5 -47 -82 0
-5 -47 -83 0
-5 -47 -84 0
-5 -47 -85 0
-5 -48 -81 0
-5 -48 -82 0
-5 -48 -83 0
-5 -48 -84 0
-5 -48 -85 0
-5 -49 -80 0
-5 -49 -82 0
-5 -49 -83 0
-5 -49 -84 0
-5 -49 -85 0
-6 -43 -80 0
-6 -43 -81 0
-6 -43 -82 0
-6 -43 -83 0
-6 -43 -85 0
-6 -44 -80 0
-6 -44 -81 0
-6 -44 -82 0
-6 -44 -84 0
-6 -44 -85 0
-6 -45 -80 0
-6 -45 -81 0
-6 -45 -83 0
-6 -45 -84 0
-6 -45 -85 0
-6 -46 -80 0
-6 -46 -82 0
-6 -46 -83 0
-6 -46 -84 0
-6 -46 -85 0
-6 -47 -81 0
-6 -47 -82 0
-6 -47 -83 0
-6 -47 -84 0
-6 -47 -85 0
-6 -48 -80 0
-6 -48 -81 0
-6 -48 -82 0
-6 -48 -83 0
-6 -48 -84 0
-6 -48 -85 0
-6 -49 -81 0
-6 -49 -82 0
-6 -49 -83 0
-6 -49 -84 0
-6 -49 -85 0
-7 -43 -80 0
-7 -43 -81 0
-7 -43 -82 0
-7 -43 -83 0
-7 -43 -84 0
-7 -44 -80 0
-7 -44 -81 0
-7 -44 -82 0
-7 -44 -83 0
-7 -44 -85 0
-7 -45 -80 0
-7 -45 -81 0
-7 -45 -82 0
-7 -45 -84 0
-7 -45 -85 0
-7 -46 -80 0
-7 -46 -81 0
-7 -46 -83 0
-7 -46 -84 0
-7 -46 -85 0
-7 -47 -80 0
-7 -47 -82 0
-7 -47 -83 0
-7 -47 -84 0
-7 -47 -85 0
-7 -48 -81 0
-7 -48 -82 0
-7 -48 -83 0
-7 -48 -84 0
-7 -48 -85 0
-7 -49 -80 0
-7 -49 -81 0
-7 -49 -82 0
-7 -49 -83 0
-7 -49 -84 0
-7 -49 -85 0
c create alldiff
-1 -8 0
-2 -9 0
-3 -10 0
-4 -11 0
-5 -12 0
-6 -13 0
-7 -14 0
-1 -15 0
-2 -16 0
-3 -17 0
-4 -18 0
-5 -19 0
-6 -20 0
-7 -21 0
-1 -22 0
-2 -23 0
-3 -24 0
-4 -25 0
-5 -26 0
-6 -27 0
-7 -28 0
-1 -29 0
-2 -30 0
-3 -31 0
-4 -32 0
-5 -33 0
-6 -34 0
-7 -35 0
-1 -36 0
-2 -37 0
-3 -38 0
-4 -39 0
-5 -40 0
-6 -41 0
-7 -42 0
-1 -43 0
-2 -44 0
-3 -45 0
-4 -46 0
-5 -47 0
-6 -48 0
-7 -49 0
-8 -15 0
-9 -16 0
-10 -17 0
-11 -18 0
-12 -19 0
-13 -20 0
-14 -21 0
-8 -22 0
-9 -23 0
-10 -24 0
-11 -25 0
-12 -26 0
-13 -27 0
-14 -28 0
-8 -29 0
-9 -30 0
-10 -31 0
-11 -32 0
-12 -33 0
-13 -34 0
-14 -35 0
-8 -36 0
-9 -37 0
-10 -38 0
-11 -39 0
-12 -40 0
-13 -41 0
-14 -42 0
-8 -43 0
-9 -44 0
-10 -45 0
-11 -46 0
-12 -47 0
-13 -48 0
-14 -49 0
-15 -22 0
-16 -23 0
-17 -24 0
-18 -25 0
-19 -26 0
-20 -27 0
-21 -28 0
-15 -29 0
-16 -30 0
-17 -31 0
-18 -32 0
-19 -33 0
-20 -34 0
-21 -35 0
-15 -36 0
-16 -37 0
-17 -38 0
-18 -39 0
-19 -40 0
-20 -41 0
-21 -42 0
-15 -43 0
-16 -44 0
-17 -45 0
-18 -46 0
-19 -47 0
-20 -48 0
-21 -49 0
-22 -29 0
-23 -30 0
-24 -31 0
-25 -32 0
-26 -33 0
-27 -34 0
-28 -35 0
-22 -36 0
-23 -37 0
-24 -38 0
-25 -39 0
-26 -40 0
-27 -41 0
-28 -42 0
-22 -43 0
-23 -44 0
-24 -45 0
-25 -46 0
-26 -47 0
-27 -48 0
-28 -49 0
-29 -36 0
-30 -37 0
-31 -38 0
-32 -39 0
-33 -40 0
-34 -41 0
-35 -42 0
-29 -43 0
-30 -44 0
-31 -45 0
-32 -46 0
-33 -47 0
-34 -48 0
-35 -49 0
-36 -43 0
-37 -44 0
-38 -45 0
-39 -46 0
-40 -47 0
-41 -48 0
-42 -49 0
c create alldiff
-50 -56 0
-51 -57 0
-52 -58 0
-53 -59 0
-54 -60 0
-55 -61 0
-50 -62 0
-51 -63 0
-52 -64 0
-53 -65 0
-54 -66 0
-55 -67 0
-50 -68 0
-51 -69 0
-52 -70 0
-53 -71 0
-54 -72 0
-55 -73 0
-50 -74 0
-51 -75 0
-52 -76 0
-53 -77 0
-54 -78 0
-55 -79 0
-50 -80 0
-51 -81 0
-52 -82 0
-53 -83 0
-54 -84 0
-55 -85 0
-56 -62 0
-57 -63 0
-58 -64 0
-59 -65 0
-60 -66 0
-61 -67 0
-56 -68 0
-57 -69 0
-58 -70 0
-59 -71 0
-60 -72 0
-61 -73 0
-56 -74 0
-57 -75 0
-58 -76 0
-59 -77 0
-60 -78 0
-61 -79 0
-56 -80 0
-57 -81 0
-58 -82 0
-59 -83 0
-60 -84 0
-61 -85 0
-62 -68 0
-63 -69 0
-64 -70 0
-65 -71 0
-66 -72 0
-67 -73 0
-62 -74 0
-63 -75 0
-64 -76 0
-65 -77 0
-66 -78 0
-67 -79 0
-62 -80 0
-63 -81 0
-64 -82 0
-65 -83 0
-66 -84 0
-67 -85 0
-68 -74 0
-69 -75 0
-70 -76 0
-71 -77 0
-72 -78 0
-73 -79 0
-68 -80 0
-69 -81 0
-70 -82 0
-71 -83 0
-72 -84 0
-73 -85 0
-74 -80 0
-75 -81 0
-76 -82 0
-77 -83 0
-78 -84 0
-79 -85 0
